Version identifier: 12.10.0.0 | 2019-11-26 | 843d4de
CPXPARAM_WorkMem                                 28672
Tried aggregator 2 times.
Aggregator did 60 substitutions.
Reduced MIP has 203 rows, 240 columns, and 945 nonzeros.
Reduced MIP has 240 binaries, 0 generals, 0 SOSs, and 0 indicators.
Presolve time = 0,00 sec. (0,89 ticks)
Found incumbent of value 930,000000 after 0,00 sec. (1,60 ticks)
Probing time = 0,00 sec. (0,34 ticks)
Tried aggregator 1 time.
Detecting symmetries...
MIP Presolve eliminated 36 rows and 0 columns.
MIP Presolve added 72 rows and 0 columns.
Reduced MIP has 239 rows, 240 columns, and 981 nonzeros.
Reduced MIP has 240 binaries, 0 generals, 0 SOSs, and 0 indicators.
Presolve time = 0,00 sec. (1,18 ticks)
Probing time = 0,00 sec. (0,33 ticks)
Clique table members: 665.
MIP emphasis: balance optimality and feasibility.
MIP search method: dynamic search.
Parallel mode: deterministic, using up to 16 threads.
Root relaxation solution time = 0,00 sec. (0,74 ticks)

        Nodes                                         Cuts/
   Node  Left     Objective  IInf  Best Integer    Best Bound    ItCnt     Gap

*     0+    0                          930,0000        0,0000           100,00%
*     0+    0                          657,0000        0,0000           100,00%
      0     0      310,0000   134      657,0000      310,0000       86   52,82%
*     0+    0                          640,0000      310,0000            51,56%
      0     0      310,0000   134      640,0000     Cuts: 159      143   51,56%
*     0+    0                          636,0000      310,0000            51,26%
*     0+    0                          621,0000      310,0000            50,08%
      0     0      310,0000   134      621,0000     Cuts: 159      197   50,08%
*     0+    0                          592,0000      310,0000            47,64%
*     0+    0                          586,0000      310,0000            47,10%
      0     2      328,9609   147      586,0000      315,0000      241   46,25%
Elapsed time = 0,09 sec. (38,84 ticks, tree = 0,02 MB, solutions = 7)
*   420+  161                          572,0000      358,8386            37,27%
*  4557+ 2228                          564,0000      482,6097            14,43%
   5093  2055      543,0327    44      564,0000      493,9627   113505   12,42%

Performing restart 1

Repeating presolve.
Tried aggregator 2 times.
MIP Presolve eliminated 14 rows and 13 columns.
MIP Presolve modified 18 coefficients.
Aggregator did 2 substitutions.
Reduced MIP has 223 rows, 225 columns, and 895 nonzeros.
Reduced MIP has 225 binaries, 0 generals, 0 SOSs, and 0 indicators.
Presolve time = 0,00 sec. (0,87 ticks)
Tried aggregator 1 time.
Reduced MIP has 223 rows, 225 columns, and 895 nonzeros.
Reduced MIP has 225 binaries, 0 generals, 0 SOSs, and 0 indicators.
Presolve time = 0,00 sec. (0,72 ticks)
Represolve time = 0,01 sec. (6,99 ticks)
   6309     0      348,5683   225      564,0000      Fract: 2   179152    7,10%
   6309     0      352,5613   225      564,0000      Fract: 3   179184    7,10%
   6309     0      355,5287   225      564,0000      Fract: 4   179208    7,10%
   6309     0      358,1537   225      564,0000      Fract: 6   179250    7,10%
   6309     0      361,3136   225      564,0000      Fract: 6   179292    7,10%
   6310     3      367,1372   220      564,0000      523,9607   179307    7,10%
   7415   614      449,5603   199      564,0000      523,9607   225128    7,10%
   9809  1895        cutoff            564,0000      523,9607   287517    7,10%
  12017  2806        cutoff            564,0000      523,9607   344967    7,10%
  14372  3198        cutoff            564,0000      523,9607   417123    7,10%

Performing restart 2

Repeating presolve.
Tried aggregator 1 time.
Reduced MIP has 223 rows, 225 columns, and 895 nonzeros.
Reduced MIP has 225 binaries, 0 generals, 0 SOSs, and 0 indicators.
Presolve time = 0,00 sec. (0,51 ticks)
Tried aggregator 1 time.
Reduced MIP has 223 rows, 225 columns, and 895 nonzeros.
Reduced MIP has 225 binaries, 0 generals, 0 SOSs, and 0 indicators.
Presolve time = 0,00 sec. (0,72 ticks)
Represolve time = 0,02 sec. (15,77 ticks)
  14373     0      365,2624   222      564,0000      Fract: 2   433945    7,10%
  14373     0      368,0626   222      564,0000      Fract: 2   433971    7,10%
  14373     0      369,7627   222      564,0000      Fract: 3   434021    7,10%
  14373     0      371,3504   222      564,0000      Fract: 4   434102    7,10%
  14373     0      372,6972   222      564,0000      Fract: 7   434149    7,10%
  14373     0      378,1859   222      564,0000     Fract: 11   434241    7,10%
  14373     0      380,3489   222      564,0000      Fract: 9   434316    7,10%
  14373     2      380,3489   218      564,0000      523,9607   434316    7,10%
* 17388+  816                          563,0000      523,9607             6,93%
  17500   770        cutoff            563,0000      529,2000   532787    6,00%

Clique cuts applied:  52
Cover cuts applied:  370
Mixed integer rounding cuts applied:  3
Zero-half cuts applied:  2
Gomory fractional cuts applied:  47

Root node processing (before b&c):
  Real time             =    0,09 sec. (38,74 ticks)
Parallel b&c, 16 threads:
  Real time             =    2,72 sec. (2074,68 ticks)
  Sync time (average)   =    0,73 sec.
  Wait time (average)   =    0,01 sec.
                          ------------
Total (root+branch&cut) =    2,80 sec. (2113,43 ticks)
